3723755823485582176591765564337821955822858218591746655641295673176583725673745655641355949244829556412959111959591185683711385686731448658386411686837115955929411956829411856829564111968568371459286564115868385641156865837112868658371129559591145865929411286865837112868659114856829564111995592941115959592864117668295641115959568294114595682956411198658386411468592956411468658386411495929564114959295564115686583711185686838641719565655641119658683711495683864114595682956411198568386411765838656411459568386411495929556414592955641128685929411868386411295958371129586591128658673147682956411386867314495592941286583711658659116946821476928641865564158385647292647356415592947826537165564195564738343737766191169197628419256493796425197426197264387166197346284183556446556477635537443835647462835647752653834446565641739556471565655647732835647753562834146829564